100
32
23
19
4
32
10
20
7
6
6
6
20
3
1
2
1
19
3
3
2
1
1
2
1
1
2
1
20
4
3
1
17
2
3
21
3
5
1
5
2
17
18
4
4
16
19
2
2
3
18
1
4
3
2
1
17
6
1
1
1
2
2
1
3
6
1
5
1
2
4
1
2
1
1
1
1
2
2
1
2
1
3
1
2
17
9
3
1
1
3
1
4
1
1
1
17
4
2
2
2
1